43143
80,79,77,78,83,84,85,67,68,76,75,74,66,65,64,63,62,61,60,57,59,58,71,72,73,70,69,51,54,55,52,56,53,34,30,31,32,33,26,20,21,19,12,15,14,16,3,1,2,4,5,6,7,8,13,10,9,17,18,11,22,23,24,29,27,28,37,127,128,129,130,39,38,118,40,36,35,43,44,42,45,47,48,49,46,41,103,104,105,106,107,108,109,110,111,99,50,95,96,97,93,92,86,87,94,88,98,156,102,101,100,112,113,114,115,117,116,125,122,121,119,120,123,124,131,138,137,142,25,146,154,155,153,152,197,198,199,200,201,202,196,195,183,179,181,180,182,194,193,191,192,151,150,149,148,147,145,144,143,139,140,141,185,184,136,133,132,126,134,167,168,163,169,170,135,171,173,186,187,190,188,175,176,189,177,178,174,172,165,164,166,162,161,160,159,158,157,91,89,90,81,82,80
